ATOMIC_SPECIES
$ATOMIC_SPECIES

LATTICE_CONSTANT
1

LATTICE_VECTORS
$LATTICE_X 0 0
0 $LATTICE_Y 0
0 0 $LATTICE_Z

ATOMIC_POSITIONS
Cartesian_angstrom_center_xyz

$XYZS

